; Copyright (c) 2026 The RIINA Authors. All rights reserved.
; Copyright (c) 2026 The RIINA Authors.
; Auto-generated from 02_FORMAL/coq/domains/mobile_os/CameraAudioSystem.v (21 assertions)
; Generated by scripts/generate-full-stack.py
; Module: CameraAudioSystem

(set-logic ALL)
(set-option :produce-models true)

; RecordingState (matches Coq: Inductive RecordingState)
(declare-datatypes ((RecordingState 0)) (((NotRecording) (Recording) (Paused))))

; Scene (matches Coq: Record Scene)
(declare-datatypes ((Scene 0))
  (((mk-scene (scene_id Int) (scene_data SensorData) (scene_timestamp Int)))))

; RawPhoto (matches Coq: Record RawPhoto)
(declare-datatypes ((RawPhoto 0))
  (((mk-raw_photo (photo_id Int) (photo_pixels PixelData) (photo_metadata Int) (photo_timestamp Int)))))

; VideoRecording (matches Coq: Record VideoRecording)
(declare-datatypes ((VideoRecording 0))
  (((mk-video_recording (video_id Int) (video_frames list) (video_duration_ms Int) (video_fps Int)))))

; AudioSample (matches Coq: Record AudioSample)
(declare-datatypes ((AudioSample 0))
  (((mk-audio_sample (audio_id Int) (audio_data list) (audio_input_time Microseconds) (audio_output_time Microseconds)))))

; CameraPermission (matches Coq: Record CameraPermission)
(declare-datatypes ((CameraPermission 0))
  (((mk-camera_permission (camera_granted Bool) (mic_granted Bool) (per_session_only Bool)))))

; AccessIndicator (matches Coq: Record AccessIndicator)
(declare-datatypes ((AccessIndicator 0))
  (((mk-access_indicator (indicator_visible Bool) (indicator_persistent Bool) (indicator_type Int)))))

; AudioConfig (matches Coq: Record AudioConfig)
(declare-datatypes ((AudioConfig 0))
  (((mk-audio_config (sample_rate Int) (bit_depth Int) (channels Int) (audio_level Int)))))

; VideoConfig (matches Coq: Record VideoConfig)
(declare-datatypes ((VideoConfig 0))
  (((mk-video_config (video_width Int) (video_height Int) (video_frame_rate Int) (stabilization_offset Int)))))

; RecordingSession (matches Coq: Record RecordingSession)
(declare-datatypes ((RecordingSession 0))
  (((mk-recording_session (rec_state RecordingState) (rec_indicator AccessIndicator) (rec_background Bool) (rec_permission CameraPermission)))))

; PhotoCapture (matches Coq: Record PhotoCapture)
(declare-datatypes ((PhotoCapture 0))
  (((mk-photo_capture (capture_photo RawPhoto) (capture_has_metadata Bool) (capture_metadata_stripped Bool) (capture_resolution_w Int) (capture_resolution_h Int)))))

; Microseconds (matches Coq: Definition Microseconds)
(define-fun Microseconds () Type nat)

; PixelData (matches Coq: Definition PixelData)
(define-fun PixelData () Type true)

; SensorData (matches Coq: Definition SensorData)
(define-fun SensorData () Type true)

; sensor_data (matches Coq: Definition sensor_data)
(define-fun sensor_data ((s Scene)) SensorData
  (scene_data s))

; pixel_data (matches Coq: Definition pixel_data)
(define-fun pixel_data ((p RawPhoto)) PixelData
  (photo_pixels p))

; captures (matches Coq: Definition captures)
(define-fun captures ((s Scene) (p RawPhoto)) Prop
  true)

; frames_captured (matches Coq: Definition frames_captured)
(define-fun frames_captured ((v VideoRecording)) Int
  true)

; expected_frames (matches Coq: Definition expected_frames)
(define-fun expected_frames ((v VideoRecording)) Int
  true)

; well_formed_video (matches Coq: Definition well_formed_video)
(define-fun well_formed_video ((v VideoRecording)) Prop
  true)

; input_to_output_latency (matches Coq: Definition input_to_output_latency)
(define-fun input_to_output_latency ((s AudioSample)) Microseconds
  true)

; low_latency_audio (matches Coq: Definition low_latency_audio)
(define-fun low_latency_audio ((s AudioSample)) Prop
  true)

; lossless_capture_system (matches Coq: Definition lossless_capture_system)
(define-fun lossless_capture_system () Prop true)

; well_formed_recording (matches Coq: Definition well_formed_recording)
(define-fun well_formed_recording ((rs RecordingSession)) Prop
  true)

; well_formed_audio (matches Coq: Definition well_formed_audio)
(define-fun well_formed_audio ((ac AudioConfig)) Prop
  true)

; well_formed_video_config (matches Coq: Definition well_formed_video_config)
(define-fun well_formed_video_config ((vc VideoConfig)) Prop
  true)

; raw_capture_lossless (matches Coq: Theorem raw_capture_lossless)
(assert (= true true)) ; raw_capture_lossless [untranslatable]

; video_no_frame_drop (matches Coq: Theorem video_no_frame_drop)
(assert (= true true)) ; video_no_frame_drop [untranslatable]

; audio_latency_bounded (matches Coq: Theorem audio_latency_bounded)
(assert (= true true)) ; audio_latency_bounded [untranslatable]

; capture_preserves_identity (matches Coq: Theorem capture_preserves_identity)
(assert (= true true)) ; capture_preserves_identity [untranslatable]

; empty_video_zero_frames (matches Coq: Theorem empty_video_zero_frames)
(assert (= true true)) ; empty_video_zero_frames [untranslatable]

; audio_latency_nonnegative (matches Coq: Theorem audio_latency_nonnegative)
(assert (= true true)) ; audio_latency_nonnegative [untranslatable]

; camera_access_indicator_visible (matches Coq: Theorem camera_access_indicator_visible)
(assert (= true true)) ; camera_access_indicator_visible [untranslatable]

; microphone_access_indicator_visible (matches Coq: Theorem microphone_access_indicator_visible)
(assert (= true true)) ; microphone_access_indicator_visible [untranslatable]

; recording_indicator_persistent (matches Coq: Theorem recording_indicator_persistent)
(assert (= true true)) ; recording_indicator_persistent [untranslatable]

; no_silent_recording (matches Coq: Theorem no_silent_recording)
(assert (= true true)) ; no_silent_recording [untranslatable]

; camera_preview_matches_capture (matches Coq: Theorem camera_preview_matches_capture)
(assert (= true true)) ; camera_preview_matches_capture [untranslatable]

; audio_sample_rate_valid (matches Coq: Theorem audio_sample_rate_valid)
(assert (= true true)) ; audio_sample_rate_valid [untranslatable]

; video_frame_rate_bounded (matches Coq: Theorem video_frame_rate_bounded)
(assert (= true true)) ; video_frame_rate_bounded [untranslatable]

; photo_metadata_strippable (matches Coq: Theorem photo_metadata_strippable)
(assert (forall ((pc PhotoCapture)) (=> (= (capture_has_metadata pc) true) (=> (= (capture_metadata_stripped pc) true) (= (capture_metadata_stripped pc) true))))) ; photo_metadata_strippable

; audio_level_bounded (matches Coq: Theorem audio_level_bounded)
(assert (= true true)) ; audio_level_bounded [untranslatable]

; camera_permission_per_session (matches Coq: Theorem camera_permission_per_session)
(assert (= true true)) ; camera_permission_per_session [untranslatable]

; background_camera_blocked (matches Coq: Theorem background_camera_blocked)
(assert (= true true)) ; background_camera_blocked [untranslatable]

; camera_interrupt_handled (matches Coq: Theorem camera_interrupt_handled)
(assert (= true true)) ; camera_interrupt_handled [untranslatable]

; audio_route_change_handled (matches Coq: Theorem audio_route_change_handled)
(assert (= true true)) ; audio_route_change_handled [untranslatable]

; video_stabilization_bounded (matches Coq: Theorem video_stabilization_bounded)
(assert (= true true)) ; video_stabilization_bounded [untranslatable]

; capture_resolution_bounded (matches Coq: Theorem capture_resolution_bounded)
(assert (= true true)) ; capture_resolution_bounded [untranslatable]

; Verify all assertions are satisfiable
(check-sat)
(exit)
